! Edited 6:4   22/4/2020
&CONTROL 
calculation = "scf", 
disk_io = 'low', 
etot_conv_thr = 1.0E-4, 
forc_conv_thr = 1.0D-3, 
nstep = 40, 
outdir = "/scratch", 
prefix = "VjnZaKUxotwvsVHT", 
pseudo_dir = "/rds/homes/b/bxp912/pp", 
restart_mode = 'from_scratch', 
tprnfor = .true., 
tstress = .true., 
/ 
&SYSTEM 
celldm(1) = 15.27030064, 
degauss = 0.04, 
ecutrho = 200, 
ecutwfc = 50, 
ibrav = 0, 
nat = 32, 
nspin = 1, 
ntyp = 1, 
occupations = 'smearing', 
smearing = 'mv', 
starting_magnetization(1) = 0, 
/ 
&ELECTRONS 
conv_thr = 1.0D-6, 
diagonalization = 'david', 
mixing_beta = 1.0000000E-01, 
mixing_mode = 'TF', 
mixing_ndim = 10, 
/ 
&IONS 
ion_dynamics = 'bfgs', 
/ 
&CELL 
cell_dynamics = 'bfgs', 
cell_factor = 2.0, 
press = 0.0, 
/ 
ATOMIC_SPECIES 
Al 26.982 Al.pbe-nl-kjpaw_psl.1.0.0.UPF 
ATOMIC_POSITIONS crystal
Al   -0.00072022539469   -0.000635847413659   -0.000518788965349   
Al   0.249504341129   0.248965150712   -0.00051421643001   
Al   0.249159391451   -0.000593875519345   0.249936148639   
Al   -0.000694874711659   0.249782573698   0.249712535725   
Al   -0.000143226255735   -0.000150596599278   0.499107091806   
Al   0.249583994782   0.249010277769   0.499352306552   
Al   0.249400709864   -0.000347082396511   0.749121180023   
Al   -0.000545022348742   0.249572416494   0.749765386491   
Al   -0.00017991956839   0.499560735709   -0.000685742186171   
Al   0.249624353463   0.749697576695   0.000155909187574   
Al   0.249723342212   0.499562841918   0.24984726322   
Al   -0.000578188002709   0.749436227433   0.249395808351   
Al   -0.000434548025848   0.499657481786   0.499543167448   
Al   0.249273199494   0.74947163006   0.499086401924   
Al   0.250018310716   0.49892383886   0.748737137738   
Al   -0.0013109076182   0.748756130978   0.749331428555   
Al   0.499752528915   -0.000855690929021   -0.000732327394646   
Al   0.749169806906   0.249533293681   -0.00112120254436   
Al   0.748615870519   -0.00084666556578   0.249499393312   
Al   0.499295429352   0.249267860983   0.249008539866   
Al   0.499187373678   -6.89858688138e-05   0.499290295765   
Al   0.749481865451   0.248736765003   0.499249684328   
Al   0.749416621858   -0.000792178019866   0.749396456711   
Al   0.499367911946   0.249117917915   0.749334802082   
Al   0.499050288334   0.499576349309   -0.00109336760395   
Al   0.748889756828   0.74954078237   -0.000107568964763   
Al   0.749546540242   0.498948688662   0.249237486955   
Al   0.499520669826   0.748926716796   0.249763669057   
Al   0.49869731616   0.499550515924   0.499425950921   
Al   0.749676696451   0.749319589159   0.499054426541   
Al   0.749239429388   0.499364053481   0.749623842427   
Al   0.499373528483   0.749242403316   0.749180544208   
K_POINTS automatic
11 11 11 1 1 1  
CELL_PARAMETERS alat
1.0 0.0 0.0 
0.0 1.0 0.0 
0.0 0.0 1.0