! Edited 6:4   22/4/2020
&CONTROL 
calculation = "scf", 
disk_io = 'low', 
etot_conv_thr = 1.0E-4, 
forc_conv_thr = 1.0D-3, 
nstep = 40, 
outdir = "/scratch", 
prefix = "MECEqXlwHvEdTQpA", 
pseudo_dir = "/rds/homes/b/bxp912/pp", 
restart_mode = 'from_scratch', 
tprnfor = .true., 
tstress = .true., 
/ 
&SYSTEM 
celldm(1) = 15.28316014, 
degauss = 0.04, 
ecutrho = 200, 
ecutwfc = 50, 
ibrav = 0, 
nat = 32, 
nspin = 1, 
ntyp = 1, 
occupations = 'smearing', 
smearing = 'mv', 
starting_magnetization(1) = 0, 
/ 
&ELECTRONS 
conv_thr = 1.0D-6, 
diagonalization = 'david', 
mixing_beta = 1.0000000E-01, 
mixing_mode = 'TF', 
mixing_ndim = 10, 
/ 
&IONS 
ion_dynamics = 'bfgs', 
/ 
&CELL 
cell_dynamics = 'bfgs', 
cell_factor = 2.0, 
press = 0.0, 
/ 
ATOMIC_SPECIES 
Al 26.982 Al.pbe-nl-kjpaw_psl.1.0.0.UPF 
ATOMIC_POSITIONS crystal
Al   -0.000719619385306   -0.000635312401283   -0.00051835244786   
Al   0.249504758184   0.248966021451   -0.000513783759926   
Al   0.249160098752   -0.000593375822805   0.249936202365   
Al   -0.000694290032753   0.249782756644   0.249712777602   
Al   -0.000143105742829   -0.000150469884845   0.499107843114   
Al   0.249584344815   0.249011110537   0.499352851532   
Al   0.249401214117   -0.000346790355727   0.749121919476   
Al   -0.000544563758056   0.24957277627   0.749765583899   
Al   -0.000179768181133   0.499561105313   -0.00068516519152   
Al   0.249624669538   0.749697831159   0.000155778003043   
Al   0.249723574996   0.49956320975   0.249847391736   
Al   -0.000577701505901   0.749436701801   0.249396316728   
Al   -0.000434182390058   0.499657769987   0.499543551835   
Al   0.249273811036   0.749472074639   0.49908717064   
Al   0.250018295309   0.498924744359   0.748738200331   
Al   -0.00130980459917   0.748757177589   0.749331991102   
Al   0.499752737141   -0.000854970936729   -0.000731711202442   
Al   0.749170505444   0.249533686375   -0.00112025914627   
Al   0.748617035148   -0.000845953167575   0.24949981453   
Al   0.499296022189   0.249268477017   0.249009374097   
Al   0.499188057435   -6.89278229795e-05   0.499290892921   
Al   0.749482301418   0.24873782791   0.499250315656   
Al   0.749417112722   -0.000791511468371   0.749396964542   
Al   0.499368443795   0.249118660113   0.749335361791   
Al   0.499051087437   0.499576705775   -0.00109244762663   
Al   0.748890691005   0.749541168763   -0.000107478454483   
Al   0.74954692179   0.498949573253   0.249238128546   
Al   0.499521073142   0.748927619874   0.24976386791   
Al   0.498698412259   0.499550894127   0.499426433935   
Al   0.749676968484   0.749320161668   0.499055222162   
Al   0.749240069344   0.499364588576   0.749624158932   
Al   0.499374055606   0.749243040771   0.749181233711   
K_POINTS automatic
11 11 11 1 1 1  
CELL_PARAMETERS alat
1.0 0.0 0.0 
0.0 1.0 0.0 
0.0 0.0 1.0