! Edited 6:4   22/4/2020
&CONTROL 
calculation = "scf", 
disk_io = 'low', 
etot_conv_thr = 1.0E-4, 
forc_conv_thr = 1.0D-3, 
nstep = 40, 
outdir = "/scratch", 
prefix = "ZjxegaoGjeaDBVpJ", 
pseudo_dir = "/rds/homes/b/bxp912/pp", 
restart_mode = 'from_scratch', 
tprnfor = .true., 
tstress = .true., 
/ 
&SYSTEM 
celldm(1) = 15.25915976, 
degauss = 0.04, 
ecutrho = 200, 
ecutwfc = 50, 
ibrav = 0, 
nat = 32, 
nspin = 1, 
ntyp = 1, 
occupations = 'smearing', 
smearing = 'mv', 
starting_magnetization(1) = 0, 
/ 
&ELECTRONS 
conv_thr = 1.0D-6, 
diagonalization = 'david', 
mixing_beta = 1.0000000E-01, 
mixing_mode = 'TF', 
mixing_ndim = 10, 
/ 
&IONS 
ion_dynamics = 'bfgs', 
/ 
&CELL 
cell_dynamics = 'bfgs', 
cell_factor = 2.0, 
press = 0.0, 
/ 
ATOMIC_SPECIES 
Al 26.982 Al.pbe-nl-kjpaw_psl.1.0.0.UPF 
ATOMIC_POSITIONS crystal
Al   -0.000720751239155   -0.000636311652834   -0.000519167738866   
Al   0.249503979243   0.248964395157   -0.000514591865069   
Al   0.249158777713   -0.000594309114379   0.24993610202   
Al   -0.000695382047312   0.249782414952   0.249712325844   
Al   -0.000143330826796   -0.000150706551508   0.499106439884   
Al   0.249583691052   0.249009555162   0.499351833664   
Al   0.249400272316   -0.000347335805178   0.749120538387   
Al   -0.00054542027554   0.249572104311   0.749765215197   
Al   -0.000180050929641   0.499560414997   -0.000686242854066   
Al   0.249624079199   0.749697355892   0.000156023018583   
Al   0.249723140221   0.499562522744   0.249847151706   
Al   -0.000578610144115   0.749435815817   0.249395367224   
Al   -0.000434865294131   0.49965723171   0.49954283391   
Al   0.249272668849   0.749471244292   0.499085734896   
Al   0.250018324085   0.498923053143   0.748736215708   
Al   -0.00131186472624   0.748755222815   0.749330940424   
Al   0.499752348233   -0.000856315678359   -0.000732862074913   
Al   0.749169200772   0.249532952933   -0.00112202114665   
Al   0.748614859951   -0.000847283725601   0.249499027813   
Al   0.499294914937   0.24926732644   0.24900781599   
Al   0.49918678037   -6.90362361537e-05   0.499289777602   
Al   0.749481487155   0.248735842702   0.499249136514   
Al   0.749416195927   -0.000792756397732   0.749396016058   
Al   0.499367450452   0.249117273897   0.749334316414   
Al   0.499049594939   0.499576039997   -0.00109416588364   
Al   0.748888946227   0.74954044709   -0.000107647502045   
Al   0.749546209166   0.498947921088   0.249236930236   
Al   0.499520319862   0.74892593318   0.249763496509   
Al   0.498696365056   0.499550187751   0.499425531801   
Al   0.749676460404   0.749319092384   0.499053736167   
Al   0.749238874087   0.499363589169   0.74962356779   
Al   0.499373071089   0.749241850187   0.749179945914   
K_POINTS automatic
11 11 11 1 1 1  
CELL_PARAMETERS alat
1.0 0.0 0.0 
0.0 1.0 0.0 
0.0 0.0 1.0