! Edited 6:4   22/4/2020
&CONTROL 
calculation = "scf", 
disk_io = 'low', 
etot_conv_thr = 1.0E-4, 
forc_conv_thr = 1.0D-3, 
nstep = 40, 
outdir = "/scratch", 
prefix = "iaKDJsdLizzcuvna", 
pseudo_dir = "/rds/homes/b/bxp912/pp", 
restart_mode = 'from_scratch', 
tprnfor = .true., 
tstress = .true., 
/ 
&SYSTEM 
celldm(1) = 15.26174747, 
degauss = 0.04, 
ecutrho = 200, 
ecutwfc = 50, 
ibrav = 0, 
nat = 32, 
nspin = 1, 
ntyp = 1, 
occupations = 'smearing', 
smearing = 'mv', 
starting_magnetization(1) = 0, 
/ 
&ELECTRONS 
conv_thr = 1.0D-6, 
diagonalization = 'david', 
mixing_beta = 1.0000000E-01, 
mixing_mode = 'TF', 
mixing_ndim = 10, 
/ 
&IONS 
ion_dynamics = 'bfgs', 
/ 
&CELL 
cell_dynamics = 'bfgs', 
cell_factor = 2.0, 
press = 0.0, 
/ 
ATOMIC_SPECIES 
Al 26.982 Al.pbe-nl-kjpaw_psl.1.0.0.UPF 
ATOMIC_POSITIONS crystal
Al   -0.00072062903197   -0.000636203762827   -0.00051907971123   
Al   0.249504063346   0.248964570749   -0.000514504613296   
Al   0.249158920347   -0.000594208346125   0.249936112855   
Al   -0.000695264141608   0.249782451845   0.249712374621   
Al   -0.000143306524296   -0.000150680998415   0.499106591392   
Al   0.249583761639   0.249009723097   0.499351943564   
Al   0.249400374003   -0.000347276912555   0.749120687504   
Al   -0.000545327796648   0.249572176863   0.749765255006   
Al   -0.000180020401054   0.499560489531   -0.000686126497961   
Al   0.249624142939   0.749697407207   0.000155996564055   
Al   0.249723187164   0.499562596921   0.249847177622   
Al   -0.000578512037705   0.749435911477   0.249395469743   
Al   -0.00043479156042   0.499657289828   0.499542911425   
Al   0.249272792172   0.749471333945   0.499085889914   
Al   0.250018320978   0.498923235745   0.74873642999   
Al   -0.00131164229263   0.748755433874   0.749331053867   
Al   0.499752390224   -0.000856170485507   -0.000732737814273   
Al   0.749169341639   0.249533032123   -0.00112183090203   
Al   0.748615094809   -0.000847140064164   0.249499112756   
Al   0.499295034488   0.249267450669   0.24900798422   
Al   0.499186918256   -6.90245306947e-05   0.499289898024   
Al   0.749481575072   0.248736057046   0.499249263827   
Al   0.749416294914   -0.000792621981692   0.749396118466   
Al   0.499367557704   0.249117423568   0.749334429284   
Al   0.499049756086   0.499576111881   -0.00109398036203   
Al   0.748889134612   0.74954052501   -0.000107629249841   
Al   0.749546286108   0.498948099474   0.249237059618   
Al   0.499520401194   0.748926115293   0.24976353661   
Al   0.498696586094   0.499550264019   0.499425629205   
Al   0.749676515262   0.749319207835   0.499053896611   
Al   0.74923900314   0.499363697076   0.749623631616   
Al   0.499373177388   0.749241978735   0.749180084959   
K_POINTS automatic
11 11 11 1 1 1  
CELL_PARAMETERS alat
1.0 0.0 0.0 
0.0 1.0 0.0 
0.0 0.0 1.0