! Edited 6:4   22/4/2020
&CONTROL 
calculation = "scf", 
disk_io = 'low', 
etot_conv_thr = 1.0E-4, 
forc_conv_thr = 1.0D-3, 
nstep = 40, 
outdir = "/scratch", 
prefix = "CTXfrgOdtTXDcHqQ", 
pseudo_dir = "/rds/homes/b/bxp912/pp", 
restart_mode = 'from_scratch', 
tprnfor = .true., 
tstress = .true., 
/ 
&SYSTEM 
celldm(1) = 15.26164287, 
degauss = 0.04, 
ecutrho = 200, 
ecutwfc = 50, 
ibrav = 0, 
nat = 32, 
nspin = 1, 
ntyp = 1, 
occupations = 'smearing', 
smearing = 'mv', 
starting_magnetization(1) = 0, 
/ 
&ELECTRONS 
conv_thr = 1.0D-6, 
diagonalization = 'david', 
mixing_beta = 1.0000000E-01, 
mixing_mode = 'TF', 
mixing_ndim = 10, 
/ 
&IONS 
ion_dynamics = 'bfgs', 
/ 
&CELL 
cell_dynamics = 'bfgs', 
cell_factor = 2.0, 
press = 0.0, 
/ 
ATOMIC_SPECIES 
Al 26.982 Al.pbe-nl-kjpaw_psl.1.0.0.UPF 
ATOMIC_POSITIONS crystal
Al   -0.000720633971006   -0.00063620812323   -0.00051908326889   
Al   0.249504059947   0.248964563653   -0.0005145081396   
Al   0.249158914582   -0.000594212418701   0.249936112417   
Al   -0.000695268906798   0.249782450354   0.249712372649   
Al   -0.000143307506488   -0.00015068203115   0.499106585269   
Al   0.249583758786   0.24900971631   0.499351939123   
Al   0.249400369893   -0.000347279292716   0.749120681478   
Al   -0.000545331534207   0.24957217393   0.749765253397   
Al   -0.000180021634875   0.499560486519   -0.000686131200524   
Al   0.249624140363   0.749697405133   0.000155997633222   
Al   0.249723185267   0.499562593923   0.249847176574   
Al   -0.000578516002702   0.749435907611   0.249395465599   
Al   -0.000434794540388   0.499657287479   0.499542908292   
Al   0.249272787188   0.749471330322   0.499085883649   
Al   0.250018321104   0.498923228365   0.74873642133   
Al   -0.00131165128235   0.748755425344   0.749331049282   
Al   0.499752388527   -0.000856176353514   -0.000732742836299   
Al   0.749169335946   0.249533028923   -0.00112183859081   
Al   0.748615085317   -0.000847145870279   0.249499109323   
Al   0.499295029656   0.249267445648   0.249007977421   
Al   0.499186912683   -6.90250037739e-05   0.499289893157   
Al   0.749481571519   0.248736048383   0.499249258682   
Al   0.749416290913   -0.000792627414152   0.749396114327   
Al   0.499367553369   0.249117417519   0.749334424722   
Al   0.499049749573   0.499576108976   -0.00109398785993   
Al   0.748889126999   0.749540521861   -0.000107629987509   
Al   0.749546282999   0.498948092264   0.249237054389   
Al   0.499520397907   0.748926107933   0.249763534989   
Al   0.498696577161   0.499550260936   0.499425625269   
Al   0.749676513045   0.749319203169   0.499053890127   
Al   0.749238997924   0.499363692715   0.749623629036   
Al   0.499373173092   0.74924197354   0.749180079339   
K_POINTS automatic
11 11 11 1 1 1  
CELL_PARAMETERS alat
1.0 0.0 0.0 
0.0 1.0 0.0 
0.0 0.0 1.0