! Edited 6:4   22/4/2020
&CONTROL 
calculation = "scf", 
disk_io = 'low', 
etot_conv_thr = 1.0E-4, 
forc_conv_thr = 1.0D-3, 
nstep = 40, 
outdir = "/scratch", 
prefix = "VjnZaKUxotwvsVHT", 
pseudo_dir = "/rds/homes/b/bxp912/pp", 
restart_mode = 'from_scratch', 
tprnfor = .true., 
tstress = .true., 
/ 
&SYSTEM 
celldm(1) = 12.13308541, 
degauss = 0.04, 
ecutrho = 200, 
ecutwfc = 50, 
ibrav = 0, 
nat = 16, 
nspin = 1, 
ntyp = 1, 
occupations = 'smearing', 
smearing = 'mv', 
starting_magnetization(1) = 0, 
/ 
&ELECTRONS 
conv_thr = 1.0D-6, 
diagonalization = 'david', 
mixing_beta = 1.0000000E-01, 
mixing_mode = 'TF', 
mixing_ndim = 10, 
/ 
&IONS 
ion_dynamics = 'bfgs', 
/ 
&CELL 
cell_dynamics = 'bfgs', 
cell_factor = 2.0, 
press = 0.0, 
/ 
ATOMIC_SPECIES 
Al 26.982 Al.pbe-nl-kjpaw_psl.1.0.0.UPF 
ATOMIC_POSITIONS crystal
Al   -0.000906451898576   -0.000800256557968   -0.000652930660413   
Al   0.249376180112   0.248697572859   0.249352824182   
Al   -0.00105796216189   -0.000747432117774   0.499919638786   
Al   0.249125453634   0.249726354436   0.749638206956   
Al   -0.000180259835871   0.499810464093   -0.0011237847672   
Al   0.24947642957   0.748754368282   0.249184834415   
Al   -0.000754246775271   0.499563173557   0.498893946197   
Al   0.24931405287   0.749461857519   0.749704723185   
Al   0.499773559173   -0.000552843531922   -0.000863052471033   
Al   0.749527223673   0.249619380015   0.250196222155   
Al   0.499651807643   -0.000550192725765   0.499807770533   
Al   0.749272311673   0.249290454464   0.749239584342   
Al   0.499453092204   0.499568917887   -0.000574954364165   
Al   0.749085272883   0.749335011042   0.24885017563   
Al   0.500023045263   0.498645579126   0.498410603259   
Al   0.74835013496   0.748434507523   0.749158558057   
K_POINTS automatic
11 11 11 1 1 1  
CELL_PARAMETERS alat
1.0 0.0 0.0 
0.0 1.0 0.0 
0.0 0.0 1.0