! Edited 6:4   22/4/2020
&CONTROL 
calculation = "scf", 
disk_io = 'low', 
etot_conv_thr = 1.0E-4, 
forc_conv_thr = 1.0D-3, 
nstep = 40, 
outdir = "/scratch", 
prefix = "UDIfSwsjAhjhkaIz", 
pseudo_dir = "/rds/homes/b/bxp912/pp", 
restart_mode = 'from_scratch', 
tprnfor = .true., 
tstress = .true., 
/ 
&SYSTEM 
celldm(1) = 15.26352225, 
degauss = 0.04, 
ecutrho = 200, 
ecutwfc = 50, 
ibrav = 0, 
nat = 33, 
nspin = 1, 
ntyp = 1, 
occupations = 'smearing', 
smearing = 'mv', 
starting_magnetization(1) = 0, 
/ 
&ELECTRONS 
conv_thr = 1.0D-6, 
diagonalization = 'david', 
mixing_beta = 1.0000000E-01, 
mixing_mode = 'TF', 
mixing_ndim = 10, 
/ 
&IONS 
ion_dynamics = 'bfgs', 
/ 
&CELL 
cell_dynamics = 'bfgs', 
cell_factor = 2.0, 
press = 0.0, 
/ 
ATOMIC_SPECIES 
Al 26.982 Al.pbe-nl-kjpaw_psl.1.0.0.UPF 
ATOMIC_POSITIONS crystal
Al   -0.000720545240171   -0.000636129787653   -0.000519019354762   
Al   0.249504121011   0.248964691145   -0.000514444788802   
Al   0.249159018144   -0.000594139254007   0.249936120283   
Al   -0.000695183299135   0.249782477141   0.249712408065   
Al   -0.000143289861199   -0.000150663477844   0.499106695274   
Al   0.249583810038   0.249009838242   0.499352018918   
Al   0.249400443725   -0.000347236532615   0.749120789747   
Al   -0.00054526438816   0.249572226608   0.749765282301   
Al   0.249820000531   0.249560540635   0.249313953282   
Al   -0.000375813358177   0.499697442392   0.000155978425412   
Al   0.24972321935   0.74956264778   -0.0001528046087   
Al   0.249421555229   0.499435977067   0.249395540035   
Al   -0.000434741004634   0.749657329677   0.249542964573   
Al   -0.000727123271463   0.499471395416   0.499085996203   
Al   0.250018318848   0.748923360946   0.498736576913   
Al   0.24868851022   0.498755578587   0.749331131649   
Al   -0.000247580984854   0.749143929066   0.749267347385   
Al   0.499169438224   -0.000466913579469   -0.00112170046011   
Al   0.74861525584   0.249152958438   -0.000500829003087   
Al   0.749295116459   -0.000732464153188   0.249008099568   
Al   0.499187012798   0.249930983495   0.249289980592   
Al   0.499481635352   -0.00126379598772   0.49924935112   
Al   0.749416362785   0.249207470181   0.499396188683   
Al   0.749367631242   -0.000882473809534   0.749334506674   
Al   0.499049866576   0.249576161169   0.748906146842   
Al   0.498889263779   0.499540578436   -0.000107616735152   
Al   0.749546338864   0.748948221785   -0.000762851670082   
Al   0.74952045696   0.49892624016   0.249763564105   
Al   0.49869673765   0.749550316312   0.249425695991   
Al   0.499676552875   0.499319286995   0.49905400662   
Al   0.749239091626   0.749363771063   0.499623675378   
Al   0.749373250273   0.499242066875   0.749180180295   
Al   0.499054076827   0.748876223295   0.749322461552   
K_POINTS automatic
11 11 11 1 1 1  
CELL_PARAMETERS alat
1.0 0.0 0.0 
0.0 1.0 0.0 
0.0 0.0 1.0