! Edited 6:4   22/4/2020
&CONTROL 
calculation = "scf", 
disk_io = 'low', 
etot_conv_thr = 1.0E-4, 
forc_conv_thr = 1.0D-3, 
nstep = 40, 
outdir = "/scratch", 
prefix = "LWMTjzkHWuZsfmjh", 
pseudo_dir = "/rds/homes/b/bxp912/pp", 
restart_mode = 'from_scratch', 
tprnfor = .true., 
tstress = .true., 
/ 
&SYSTEM 
celldm(1) = 15.28927469, 
degauss = 0.04, 
ecutrho = 200, 
ecutwfc = 50, 
ibrav = 0, 
nat = 29, 
nspin = 1, 
ntyp = 1, 
occupations = 'smearing', 
smearing = 'mv', 
starting_magnetization(1) = 0, 
/ 
&ELECTRONS 
conv_thr = 1.0D-6, 
diagonalization = 'david', 
mixing_beta = 1.0000000E-01, 
mixing_mode = 'TF', 
mixing_ndim = 10, 
/ 
&IONS 
ion_dynamics = 'bfgs', 
/ 
&CELL 
cell_dynamics = 'bfgs', 
cell_factor = 2.0, 
press = 0.0, 
/ 
ATOMIC_SPECIES 
Al 26.982 Al.pbe-nl-kjpaw_psl.1.0.0.UPF 
ATOMIC_POSITIONS crystal
Al   -0.000719331592144   -0.000635058324519   -0.000518145146204   
Al   0.249504956243   0.248966434964   -0.000513578285399   
Al   0.249160434649   -0.000593138517491   0.249936227879   
Al   -0.00069401236941   0.249782843524   0.249712892469   
Al   -0.000143048511388   -0.000150409708306   0.499108199909   
Al   0.249584511046   0.249011506018   0.499353110342   
Al   0.249401453586   -0.000346651665892   0.749122270642   
Al   -0.000544345973865   0.249572947127   0.749765677647   
Al   -0.000179696287498   0.499561280837   -0.000684891177422   
Al   0.249624819642   0.749697952004   0.000155715703659   
Al   0.249723685545   0.499563384433   0.249847452767   
Al   -0.000577470469125   0.749436927077   0.249396558155   
Al   0.24956599125   0.749657906853   0.499543734379   
Al   0.249274101456   0.49947228577   0.749087535702   
Al   1.82879923841e-05   0.74892517438   0.748738704955   
Al   0.748690719223   0.248757674624   -0.000667741744715   
Al   0.749752836027   -0.000854629013214   0.249268581427   
Al   0.499170837178   0.249533872865   0.248880188872   
Al   0.498617588229   -0.000845614850484   0.499500014567   
Al   0.749296303727   0.24926876957   0.499009770272   
Al   0.74918838215   -6.89002570793e-05   0.74929117651   
Al   0.499482508458   0.248738332683   0.749250615473   
Al   0.499417345832   0.499208805076   -0.000602794289251   
Al   0.74936869637   0.749119012582   -0.000664372404582   
Al   0.74905146693   0.499576875061   0.24890798927   
Al   0.498891134644   0.749541352261   0.249892564529   
Al   0.499547102987   0.498949993344   0.499238433237   
Al   0.749521264676   0.748928048744   0.499763962345   
Al   0.748698932795   0.499551073736   0.749426663318   
K_POINTS automatic
11 11 11 1 1 1  
CELL_PARAMETERS alat
1.0 0.0 0.0 
0.0 1.0 0.0 
0.0 0.0 1.0