! Edited 6:4   22/4/2020
&CONTROL 
calculation = "scf", 
disk_io = 'low', 
etot_conv_thr = 1.0E-4, 
forc_conv_thr = 1.0D-3, 
nstep = 40, 
outdir = "/scratch", 
prefix = "xUorMwpGdVVEhqNI", 
pseudo_dir = "/rds/homes/b/bxp912/pp", 
restart_mode = 'from_scratch', 
tprnfor = .true., 
tstress = .true., 
/ 
&SYSTEM 
celldm(1) = 15.27843606, 
degauss = 0.04, 
ecutrho = 200, 
ecutwfc = 50, 
ibrav = 0, 
nat = 33, 
nspin = 1, 
ntyp = 1, 
occupations = 'smearing', 
smearing = 'mv', 
starting_magnetization(1) = 0, 
/ 
&ELECTRONS 
conv_thr = 1.0D-6, 
diagonalization = 'david', 
mixing_beta = 1.0000000E-01, 
mixing_mode = 'TF', 
mixing_ndim = 10, 
/ 
&IONS 
ion_dynamics = 'bfgs', 
/ 
&CELL 
cell_dynamics = 'bfgs', 
cell_factor = 2.0, 
press = 0.0, 
/ 
ATOMIC_SPECIES 
Al 26.982 Al.pbe-nl-kjpaw_psl.1.0.0.UPF 
ATOMIC_POSITIONS crystal
Al   -0.000719841891035   -0.000635508839361   -0.000518512722015   
Al   0.249504605056   0.248965701746   -0.000513942621447   
Al   0.249159839055   -0.000593559294127   0.249936182638   
Al   -0.000694504706667   0.249782689472   0.249712688793   
Al   -0.000143149991008   -0.000150516410011   0.49910756726   
Al   0.249584216295   0.249010804773   0.499352651434   
Al   0.249401028973   -0.000346897583022   0.749121647975   
Al   -0.000544732136727   0.249572644173   0.749765511418   
Al   -0.000179823765308   0.499560969607   -0.00068537704404   
Al   0.249624553486   0.749697737729   0.000155826169475   
Al   0.249723489526   0.499563074695   0.249847344549   
Al   -0.000577880130737   0.749436527629   0.249396130069   
Al   0.249565683361   0.24965766417   0.249543410701   
Al   -0.000726413501282   0.499471911405   0.499086888394   
Al   0.250018300966   0.748924411891   0.498737810184   
Al   0.24868979041   0.49875679331   0.749331784555   
Al   -0.00024733931249   0.749144764707   0.749268062553   
Al   0.499170248964   -0.000466457808971   -0.00112060552949   
Al   0.748616607536   0.249153785264   -0.000500340126571   
Al   0.74929580452   -0.000731749169588   0.249009067796   
Al   0.499187806383   0.249931050865   0.249290673666   
Al   0.499482141346   -0.00126256235274   0.499250083854   
Al   0.749416932493   0.249208243797   0.499396778084   
Al   0.749368248519   -0.000881612396319   0.749335156285   
Al   0.499050794034   0.249576574893   0.748907214589   
Al   0.498890348007   0.499541026893   -0.000107511686734   
Al   0.749546781699   0.748949248462   -0.000762107024176   
Al   0.749520925058   0.498927288294   0.249763794898   
Al   0.498698009809   0.749550755264   0.249426256589   
Al   0.499676868603   0.499319951463   0.499054930037   
Al   0.749239834374   0.749364392108   0.499624042722   
Al   0.749373862065   0.499242806719   0.749180980549   
Al   0.499055000175   0.748877320253   0.749323122921   
K_POINTS automatic
11 11 11 1 1 1  
CELL_PARAMETERS alat
1.0 0.0 0.0 
0.0 1.0 0.0 
0.0 0.0 1.0