! Edited 6:4   22/4/2020
&CONTROL 
calculation = "scf", 
disk_io = 'low', 
etot_conv_thr = 1.0E-4, 
forc_conv_thr = 1.0D-3, 
nstep = 40, 
outdir = "/scratch", 
prefix = "yqyetTBCTOQKthTW", 
pseudo_dir = "/rds/homes/b/bxp912/pp", 
restart_mode = 'from_scratch', 
tprnfor = .true., 
tstress = .true., 
/ 
&SYSTEM 
celldm(1) = 15.26341948, 
degauss = 0.04, 
ecutrho = 200, 
ecutwfc = 50, 
ibrav = 0, 
nat = 31, 
nspin = 1, 
ntyp = 1, 
occupations = 'smearing', 
smearing = 'mv', 
starting_magnetization(1) = 0, 
/ 
&ELECTRONS 
conv_thr = 1.0D-6, 
diagonalization = 'david', 
mixing_beta = 1.0000000E-01, 
mixing_mode = 'TF', 
mixing_ndim = 10, 
/ 
&IONS 
ion_dynamics = 'bfgs', 
/ 
&CELL 
cell_dynamics = 'bfgs', 
cell_factor = 2.0, 
press = 0.0, 
/ 
ATOMIC_SPECIES 
Al 26.982 Al.pbe-nl-kjpaw_psl.1.0.0.UPF 
ATOMIC_POSITIONS crystal
Al   -0.000720550091668   -0.000636134070774   -0.000519022849367   
Al   0.249504117672   0.248964684174   -0.000514448252606   
Al   0.249159012482   -0.000594143254401   0.249936119853   
Al   -0.000695187979868   0.249782475676   0.249712406128   
Al   -0.000143290825983   -0.000150664492275   0.499106689259   
Al   0.249583807235   0.249009831575   0.499352014555   
Al   0.249400439688   -0.00034723887059   0.749120783827   
Al   -0.000545268059475   0.249572223728   0.749765280721   
Al   -0.00018000068097   0.499560537676   -0.000686051337191   
Al   0.249624184111   0.749697440354   0.000155979475629   
Al   0.249723217487   0.499562644836   0.249847194362   
Al   -0.000578448665411   0.74943597327   0.249395535965   
Al   -0.000434743931785   0.49965732737   0.499542961496   
Al   0.249272871833   0.749471391857   0.499085990049   
Al   0.250018318971   0.498923353697   0.748736568406   
Al   -0.00131149861061   0.748755570208   0.749331127146   
Al   0.499752417348   -0.000856076697505   -0.000732657547531   
Al   0.749169432632   0.249533083277   -0.00112170801263   
Al   0.748615246516   -0.000847047265387   0.249499167625   
Al   0.499295111713   0.249267530915   0.249008092889   
Al   0.499187007324   -6.90169694987e-05   0.499289975811   
Al   0.749481631862   0.248736195503   0.499249346066   
Al   0.749416358855   -0.000792535155023   0.749396184618   
Al   0.499367626984   0.499117520249   -0.000665497806924   
Al   0.749049860179   0.749576158315   -0.00109386052347   
Al   0.7488892563   0.499540575342   0.24989238254   
Al   0.49954633581   0.748948214703   0.249237143194   
Al   0.499520453731   0.498926232931   0.499763562513   
Al   0.748696728875   0.749550313285   0.499425692124   
Al   0.749676550697   0.499319282412   0.749054000251   
Al   0.499239086502   0.749363766779   0.749623672845   
K_POINTS automatic
11 11 11 1 1 1  
CELL_PARAMETERS alat
1.0 0.0 0.0 
0.0 1.0 0.0 
0.0 0.0 1.0