! Edited 6:4   22/4/2020
&CONTROL 
calculation = "scf", 
disk_io = 'low', 
etot_conv_thr = 1.0E-4, 
forc_conv_thr = 1.0D-3, 
nstep = 40, 
outdir = "/scratch", 
prefix = "RlLckEmHImHvsLsA", 
pseudo_dir = "/rds/homes/b/bxp912/pp", 
restart_mode = 'from_scratch', 
tprnfor = .true., 
tstress = .true., 
/ 
&SYSTEM 
celldm(1) = 15.26770207, 
degauss = 0.04, 
ecutrho = 200, 
ecutwfc = 50, 
ibrav = 0, 
nat = 31, 
nspin = 1, 
ntyp = 1, 
occupations = 'smearing', 
smearing = 'mv', 
starting_magnetization(1) = 0, 
/ 
&ELECTRONS 
conv_thr = 1.0D-6, 
diagonalization = 'david', 
mixing_beta = 1.0000000E-01, 
mixing_mode = 'TF', 
mixing_ndim = 10, 
/ 
&IONS 
ion_dynamics = 'bfgs', 
/ 
&CELL 
cell_dynamics = 'bfgs', 
cell_factor = 2.0, 
press = 0.0, 
/ 
ATOMIC_SPECIES 
Al 26.982 Al.pbe-nl-kjpaw_psl.1.0.0.UPF 
ATOMIC_POSITIONS crystal
Al   -0.000720347977388   -0.000635955635185   -0.000518877263473   
Al   0.249504256767   0.24896497458   -0.000514303949886   
Al   0.249159248379   -0.000593976597235   0.249936137771   
Al   -0.000694992979659   0.249782536692   0.249712486798   
Al   -0.00014325063291   -0.000150622230889   0.499106939833   
Al   0.249583923977   0.249010109318   0.499352196315   
Al   0.249400607865   -0.000347141470097   0.749121030447   
Al   -0.0005451151118   0.249572343719   0.74976534656   
Al   -0.000179950190784   0.499560660946   -0.00068585889981   
Al   0.249624289528   0.749697525222   0.00015593572339   
Al   0.249723295124   0.499562767514   0.249847237224   
Al   -0.000578286410576   0.749436131479   0.249395705517   
Al   -0.000434621986125   0.49965742349   0.499543089695   
Al   0.249273075792   0.749471540132   0.499086246429   
Al   0.250018313833   0.498923655697   0.748736922798   
Al   -0.00131113073529   0.74875591927   0.749331314764   
Al   0.499752486795   -0.000855836568016   -0.000732452037109   
Al   0.749169665606   0.249533214247   -0.00112139337356   
Al   0.748615634939   -0.000846809668653   0.249499308108   
Al   0.499295309434   0.249267736373   0.249008371119   
Al   0.499187235368   -6.89976102407e-05   0.499290174973   
Al   0.749481777264   0.24873655   0.499249556624   
Al   0.749416522566   -0.000792312848934   0.749396353988   
Al   0.499367804365   0.249117767784   0.749334688865   
Al   0.499050126693   0.499576277203   -0.00109355369563   
Al   0.748889567864   0.749540704211   -0.000107587273051   
Al   0.749546463063   0.498948509729   0.249237357175   
Al   0.499520588244   0.748926534122   0.249763628833   
Al   0.498697094442   0.499550439422   0.499425853217   
Al   0.749676641425   0.749319473353   0.499054265604   
Al   0.749239299938   0.499363945242   0.749623778404   
K_POINTS automatic
11 11 11 1 1 1  
CELL_PARAMETERS alat
1.0 0.0 0.0 
0.0 1.0 0.0 
0.0 0.0 1.0