! Edited 6:4   22/4/2020
&CONTROL 
calculation = "scf", 
disk_io = 'low', 
etot_conv_thr = 1.0E-4, 
forc_conv_thr = 1.0D-3, 
nstep = 40, 
outdir = "/scratch", 
prefix = "BJZHakjYyUKbIQlz", 
pseudo_dir = "/rds/homes/b/bxp912/pp", 
restart_mode = 'from_scratch', 
tprnfor = .true., 
tstress = .true., 
/ 
&SYSTEM 
celldm(1) = 15.26117636, 
degauss = 0.04, 
ecutrho = 200, 
ecutwfc = 50, 
ibrav = 0, 
nat = 33, 
nspin = 1, 
ntyp = 1, 
occupations = 'smearing', 
smearing = 'mv', 
starting_magnetization(1) = 0, 
/ 
&ELECTRONS 
conv_thr = 1.0D-6, 
diagonalization = 'david', 
mixing_beta = 1.0000000E-01, 
mixing_mode = 'TF', 
mixing_ndim = 10, 
/ 
&IONS 
ion_dynamics = 'bfgs', 
/ 
&CELL 
cell_dynamics = 'bfgs', 
cell_factor = 2.0, 
press = 0.0, 
/ 
ATOMIC_SPECIES 
Al 26.982 Al.pbe-nl-kjpaw_psl.1.0.0.UPF 
ATOMIC_POSITIONS crystal
Al   -0.000720655999645   -0.000636227571106   -0.000519099136444   
Al   0.249504044787   0.248964532001   -0.000514523867299   
Al   0.249158888871   -0.000594230582834   0.249936110464   
Al   -0.000695290160068   0.249782443704   0.249712363857   
Al   -0.000143311887172   -0.000150686637261   0.499106557958   
Al   0.249583746062   0.249009686038   0.499351919312   
Al   0.249400351563   -0.000347289908494   0.749120654598   
Al   -0.000545348204128   0.249572160852   0.749765246222   
Al   -0.000180027137851   0.499560473083   -0.000686152174468   
Al   0.249624128873   0.749697395884   0.000156002401822   
Al   0.249723176805   0.499562580552   0.249847171903   
Al   -0.00057853368702   0.749435890368   0.24939544712   
Al   -0.000434807831368   0.499657277003   0.499542894319   
Al   0.249272764958   0.749471314161   0.499085855706   
Al   0.250018321664   0.49892319545   0.748736382704   
Al   -0.00131169137745   0.748755387299   0.749331028833   
Al   0.499752380958   -0.00085620252547   -0.000732765235088   
Al   0.749169310554   0.249533014648   -0.00112187288364   
Al   0.748615042982   -0.000847171766187   0.249499094011   
Al   0.499295008107   0.249267423255   0.249007947097   
Al   0.249186887829   0.249930972886   0.24928987145   
Al   0.499481555671   -0.00126399025363   0.499249235733   
Al   0.74941627307   0.249207348356   0.499396095868   
Al   0.749367534036   -0.000882609460052   0.749334404377   
Al   0.499049720525   0.249576096018   0.748905978699   
Al   0.498889093041   0.499540507815   -0.000107633277587   
Al   0.749546269129   0.748948060109   -0.00076296893274   
Al   0.749520383246   0.498926075106   0.249763527761   
Al   0.498696537317   0.749550247189   0.249425607711   
Al   0.499676503156   0.499319182359   0.499053861206   
Al   0.749238974662   0.749363673264   0.499623617531   
Al   0.749373153931   0.499241950368   0.749180054275   
Al   0.499053931423   0.748876050553   0.749322357404   
K_POINTS automatic
11 11 11 1 1 1  
CELL_PARAMETERS alat
1.0 0.0 0.0 
0.0 1.0 0.0 
0.0 0.0 1.0