! Edited 6:4   22/4/2020
&CONTROL 
calculation = "scf", 
disk_io = 'low', 
etot_conv_thr = 1.0E-4, 
forc_conv_thr = 1.0D-3, 
nstep = 40, 
outdir = "/scratch", 
prefix = "vTHeHMDNoWKofABL", 
pseudo_dir = "/rds/homes/b/bxp912/pp", 
restart_mode = 'from_scratch', 
tprnfor = .true., 
tstress = .true., 
/ 
&SYSTEM 
celldm(1) = 15.26168877, 
degauss = 0.04, 
ecutrho = 200, 
ecutwfc = 50, 
ibrav = 0, 
nat = 33, 
nspin = 1, 
ntyp = 1, 
occupations = 'smearing', 
smearing = 'mv', 
starting_magnetization(1) = 0, 
/ 
&ELECTRONS 
conv_thr = 1.0D-6, 
diagonalization = 'david', 
mixing_beta = 1.0000000E-01, 
mixing_mode = 'TF', 
mixing_ndim = 10, 
/ 
&IONS 
ion_dynamics = 'bfgs', 
/ 
&CELL 
cell_dynamics = 'bfgs', 
cell_factor = 2.0, 
press = 0.0, 
/ 
ATOMIC_SPECIES 
Al 26.982 Al.pbe-nl-kjpaw_psl.1.0.0.UPF 
ATOMIC_POSITIONS crystal
Al   -0.000720631803677   -0.000636206209815   -0.000519081707731   
Al   0.249504061438   0.248964566767   -0.000514506592201   
Al   0.249158917112   -0.000594210631589   0.249936112609   
Al   -0.000695266815756   0.249782451008   0.249712373514   
Al   0.249856692925   0.249849318422   0.249106587956   
Al   -0.000416239961813   -0.000990280711929   0.499351941072   
Al   0.249400371697   0.249652721752   0.499120684122   
Al   0.249454670106   -0.000427824782906   0.749765254103   
Al   -0.000180021093454   0.24956048784   0.749313870863   
Al   -0.000375858506933   0.499697406044   0.000155997164054   
Al   0.249723186099   0.749562595239   -0.000152822966052   
Al   0.249421485737   0.499435909308   0.249395467417   
Al   -0.00043479323273   0.74965728851   0.249542909667   
Al   -0.000727210625228   0.499471331912   0.499085886398   
Al   0.250018321048   0.748923231603   0.49873642513   
Al   0.248688352662   0.498755429087   0.749331051294   
Al   -0.000247610728272   0.749143826221   0.749267259367   
Al   0.499169338444   -0.000466969672652   -0.00112183521685   
Al   0.748615089482   0.249152856678   -0.000500889170738   
Al   0.749295031777   -0.000732552148586   0.249007980405   
Al   0.499186915129   0.249930975204   0.249289895293   
Al   0.499481573078   -0.00126394781526   0.49924926094   
Al   0.749416292669   0.24920737497   0.499396116144   
Al   0.749367555271   -0.000882579826509   0.749334426724   
Al   0.499049752431   0.249576110251   0.74890601543   
Al   0.49888913034   0.499540523242   -0.000107629663808   
Al   0.749546284363   0.748948095428   -0.000762943316118   
Al   0.749520399349   0.498926111163   0.2497635357   
Al   0.498696581081   0.749550262289   0.249425626996   
Al   0.499676514017   0.499319205217   0.499053892972   
Al   0.749239000213   0.749363694629   0.499623630168   
Al   0.749373174977   0.49924197582   0.749180081805   
Al   0.499053963187   0.748876088289   0.749322380155   
K_POINTS automatic
11 11 11 1 1 1  
CELL_PARAMETERS alat
1.0 0.0 0.0 
0.0 1.0 0.0 
0.0 0.0 1.0