! Edited 6:4   22/4/2020
&CONTROL 
calculation = "scf", 
disk_io = 'low', 
etot_conv_thr = 1.0E-4, 
forc_conv_thr = 1.0D-3, 
nstep = 40, 
outdir = "/scratch", 
prefix = "GkoVVDqtnvxpzyGD", 
pseudo_dir = "/rds/homes/b/bxp912/pp", 
restart_mode = 'from_scratch', 
tprnfor = .true., 
tstress = .true., 
/ 
&SYSTEM 
celldm(1) = 15.28796446, 
degauss = 0.04, 
ecutrho = 200, 
ecutwfc = 50, 
ibrav = 0, 
nat = 29, 
nspin = 1, 
ntyp = 1, 
occupations = 'smearing', 
smearing = 'mv', 
starting_magnetization(1) = 0, 
/ 
&ELECTRONS 
conv_thr = 1.0D-6, 
diagonalization = 'david', 
mixing_beta = 1.0000000E-01, 
mixing_mode = 'TF', 
mixing_ndim = 10, 
/ 
&IONS 
ion_dynamics = 'bfgs', 
/ 
&CELL 
cell_dynamics = 'bfgs', 
cell_factor = 2.0, 
press = 0.0, 
/ 
ATOMIC_SPECIES 
Al 26.982 Al.pbe-nl-kjpaw_psl.1.0.0.UPF 
ATOMIC_POSITIONS crystal
Al   -0.000719393241282   -0.000635112751154   -0.000518189552986   
Al   0.249504913816   0.248966346384   -0.000513622300786   
Al   0.249160362695   -0.000593189351458   0.249936222413   
Al   -0.000694071848606   0.249782824913   0.249712867863   
Al   -0.000143060771127   -0.000150422598925   0.499108123479   
Al   0.249584475437   0.249011421301   0.499353054902   
Al   0.249401402288   -0.000346681375107   0.749122195418   
Al   -0.000544392626146   0.249572910527   0.749765657565   
Al   -0.000179711688075   0.499561243238   -0.0006849498749   
Al   0.249624787488   0.749697926117   0.000155729049019   
Al   0.249723661864   0.499563347014   0.249847439693   
Al   -0.000577519960287   0.74943687882   0.249396506438   
Al   -0.00043404594605   0.499657877534   0.499543695276   
Al   0.249274039244   0.749472240543   0.499087457501   
Al   0.25001828956   0.498925082264   0.748738596858   
Al   -0.00130939298646   0.748757568152   0.749332201028   
Al   0.499752814845   -0.000854702257797   -0.000731481258503   
Al   0.749170766116   0.249533832916   -0.00111990709918   
Al   0.748617469752   -0.000845687322522   0.249499971716   
Al   0.499296243418   0.249268706902   0.249009685406   
Al   0.499188312592   -6.89061620632e-05   0.499291115762   
Al   0.749482464107   0.248738224554   0.499250551248   
Al   0.749417295897   -0.000791262731896   0.749397154049   
Al   0.499368642265   0.249118937079   0.749335570656   
Al   0.749051385638   0.749576838798   -0.00109210431945   
Al   0.498891039611   0.749541312953   0.249892555321   
Al   0.749547064172   0.748949903355   0.499238367968   
Al   0.749521223647   0.498927956874   0.749763942115   
Al   0.49869882129   0.749551035261   0.749426614181   
K_POINTS automatic
11 11 11 1 1 1  
CELL_PARAMETERS alat
1.0 0.0 0.0 
0.0 1.0 0.0 
0.0 0.0 1.0