! Edited 6:4   22/4/2020
&CONTROL 
calculation = "scf", 
disk_io = 'low', 
etot_conv_thr = 1.0E-4, 
forc_conv_thr = 1.0D-3, 
nstep = 40, 
outdir = "/scratch", 
prefix = "eBFyHDjGQNwkdZJW", 
pseudo_dir = "/rds/homes/b/bxp912/pp", 
restart_mode = 'from_scratch', 
tprnfor = .true., 
tstress = .true., 
/ 
&SYSTEM 
celldm(1) = 15.28347198, 
degauss = 0.04, 
ecutrho = 200, 
ecutwfc = 50, 
ibrav = 0, 
nat = 33, 
nspin = 1, 
ntyp = 1, 
occupations = 'smearing', 
smearing = 'mv', 
starting_magnetization(1) = 0, 
/ 
&ELECTRONS 
conv_thr = 1.0D-6, 
diagonalization = 'david', 
mixing_beta = 1.0000000E-01, 
mixing_mode = 'TF', 
mixing_ndim = 10, 
/ 
&IONS 
ion_dynamics = 'bfgs', 
/ 
&CELL 
cell_dynamics = 'bfgs', 
cell_factor = 2.0, 
press = 0.0, 
/ 
ATOMIC_SPECIES 
Al 26.982 Al.pbe-nl-kjpaw_psl.1.0.0.UPF 
ATOMIC_POSITIONS crystal
Al   -0.000719604702379   -0.000635299438534   -0.000518341871531   
Al   0.249504768289   0.248966042548   -0.000513773276815   
Al   0.249160115889   -0.000593363715719   0.249936203666   
Al   -0.000694275866639   0.249782761076   0.249712783462   
Al   -0.000143102822937   -0.000150466814697   0.499107861317   
Al   0.249584353296   0.249011130714   0.499352864736   
Al   0.249401226334   -0.000346783279906   0.749121937393   
Al   -0.000544552646918   0.249572784987   0.749765588682   
Al   -0.00017976451319   0.499561114268   -0.000685151211587   
Al   0.249624677196   0.749697837324   0.000155774824589   
Al   0.249723580636   0.499563218662   0.249847394849   
Al   -0.00057768971863   0.749436713294   0.249396329045   
Al   -0.000434173531113   0.49965777697   0.499543561148   
Al   0.249273825853   0.749472085411   0.499087189265   
Al   0.250018294936   0.498924766298   0.748738226076   
Al   -0.00130977787425   0.748757202947   0.749332004732   
Al   0.249752742186   0.249145046508   0.249268303727   
Al   0.499170522368   -0.000466304110635   -0.0011202362888   
Al   0.748617063366   0.249154064093   -0.000500175263976   
Al   0.749296036553   -0.000731508057471   0.24900939431   
Al   0.499188074001   0.249931073583   0.24929090739   
Al   0.499482311981   -0.00126214633712   0.499250330952   
Al   0.749417124615   0.249208504681   0.499396976846   
Al   0.749368456682   -0.000881321904112   0.749335375352   
Al   0.499051106799   0.249576714412   0.748907574663   
Al   0.498890713639   0.499541178125   -0.00010747626152   
Al   0.749546931035   0.748949594686   -0.000761855909114   
Al   0.749521082914   0.498927641754   0.249763872728   
Al   0.498698438816   0.749550903291   0.249426445638   
Al   0.499676975075   0.499320175539   0.499055241439   
Al   0.74924008485   0.749364601541   0.4996241666   
Al   0.749374068378   0.499243056215   0.749181250417   
Al   0.499055311553   0.748877690177   0.749323345953   
K_POINTS automatic
11 11 11 1 1 1  
CELL_PARAMETERS alat
1.0 0.0 0.0 
0.0 1.0 0.0 
0.0 0.0 1.0