! Edited 6:4   22/4/2020
&CONTROL 
calculation = "scf", 
disk_io = 'low', 
etot_conv_thr = 1.0E-4, 
forc_conv_thr = 1.0D-3, 
nstep = 40, 
outdir = "/scratch", 
prefix = "iIIvgadNXpKCLkNu", 
pseudo_dir = "/rds/homes/b/bxp912/pp", 
restart_mode = 'from_scratch', 
tprnfor = .true., 
tstress = .true., 
/ 
&SYSTEM 
celldm(1) = 15.2820595, 
degauss = 0.04, 
ecutrho = 200, 
ecutwfc = 50, 
ibrav = 0, 
nat = 31, 
nspin = 1, 
ntyp = 1, 
occupations = 'smearing', 
smearing = 'mv', 
starting_magnetization(1) = 0, 
/ 
&ELECTRONS 
conv_thr = 1.0D-6, 
diagonalization = 'david', 
mixing_beta = 1.0000000E-01, 
mixing_mode = 'TF', 
mixing_ndim = 10, 
/ 
&IONS 
ion_dynamics = 'bfgs', 
/ 
&CELL 
cell_dynamics = 'bfgs', 
cell_factor = 2.0, 
press = 0.0, 
/ 
ATOMIC_SPECIES 
Al 26.982 Al.pbe-nl-kjpaw_psl.1.0.0.UPF 
ATOMIC_POSITIONS crystal
Al   -0.000719671213522   -0.000635358157566   -0.000518389780487   
Al   0.249504722516   0.248965946982   -0.000513820763509   
Al   0.249160038261   -0.000593418558744   0.24993619777   
Al   -0.000694340036706   0.249782740997   0.249712756916   
Al   0.24985688395   0.249849519278   0.499107778859   
Al   0.249584314879   -0.000988960684285   0.749352804923   
Al   -0.000598829008916   0.249653184668   0.749121856236   
Al   -0.000544602978467   0.4995727455   -0.000234432984242   
Al   0.249820218872   0.749561073703   -0.000685214538286   
Al   0.249624642506   0.499697809396   0.250155789222   
Al   -0.000276444912622   0.749563178292   0.249847380744   
Al   -0.00057774311295   0.499436661231   0.499396273249   
Al   0.249565786339   0.749657745339   0.49954351896   
Al   0.249273758734   0.499472036617   0.749087104896   
Al   1.82966267792e-05   0.748924666917   0.748738109454   
Al   0.498690101066   -0.00124291192094   -0.000668057008738   
Al   0.749752719333   0.249144967487   -0.000731763901531   
Al   0.749170445702   -0.00046634720988   0.248879660171   
Al   0.498616935544   0.249153985905   0.249499778506   
Al   0.499295971488   -0.00073157566881   0.499009302751   
Al   0.749187998957   0.249931067213   0.49929084185   
Al   0.749482264132   -0.00126226299394   0.749250261662   
Al   0.499417070741   0.249208431526   0.749396921111   
Al   0.49936839831   0.499118596638   -0.000664686077823   
Al   0.749051019095   0.749576675289   -0.00109252630657   
Al   0.74889061111   0.499541135717   0.249892513805   
Al   0.499546889159   0.748949497599   0.249238073675   
Al   0.499521038649   0.498927542639   0.499763850903   
Al   0.748698318516   0.749550861782   0.499426392626   
Al   0.749676945219   0.499320112705   0.749055154117   
Al   0.499240014613   0.749364542813   0.749624131863   
K_POINTS automatic
11 11 11 1 1 1  
CELL_PARAMETERS alat
1.0 0.0 0.0 
0.0 1.0 0.0 
0.0 0.0 1.0